nNurses = 138;
nHours = 25;
minHours = 10;
maxHours = 12;
maxConsec = 11;
maxPresence = 12;
demand = [21, 22, 23, 20, 18, 16, 19, 16, 21, 22, 21, 16, 14, 18, 21, 17, 22, 25, 29, 25, 24, 21, 20, 25, 23];
